% From JaCoP's nonogramRepository/data058.nin
 rows = 20;
 row_rule_len = 7;
 row_rules = array2d(1..rows, 1..row_rule_len, 
[
 0,0,0,0,0,0,5,
 0,0,0,0,0,0,3,
 0,0,0,0,0,0,3,
 0,0,0,0,0,12,1,
 0,0,2,2,3,3,2,
 0,2,2,2,2,4,2,
 2,2,2,2,2,1,1,
 0,0,0,16,3,1,1,
 0,0,0,0,1,9,1,
 0,0,4,4,1,8,2,
 0,4,4,1,2,4,1,
 0,4,4,1,2,3,1,
 0,0,0,0,0,3,2,
 0,0,0,0,16,3,2,
 0,0,0,0,0,16,3,
 0,0,0,0,0,16,3,
 0,0,0,0,0,16,3,
 0,0,0,0,0,14,3,
 0,0,0,0,4,4,5,
 0,0,0,0,4,4,9
]);

 cols = 30;
 col_rule_len = 6;
 col_rules = array2d(1..cols, 1..col_rule_len, 
[
 0,0,0,1,1,1,
 0,0,1,1,1,3,
 0,0,0,2,2,3,
 0,0,2,2,3,4,
 1,1,1,1,3,5,
 0,0,4,1,1,7,
 0,0,0,5,2,7,
 0,0,0,5,2,7,
 1,1,1,1,3,7,
 0,1,1,1,3,5,
 0,0,2,2,3,5,
 0,0,2,2,3,5,
 0,0,0,2,1,5,
 0,0,0,0,7,7,
 0,0,0,0,2,7,
 0,0,0,0,1,7,
 0,0,0,0,3,7,
 0,0,0,0,4,5,
 0,0,0,2,4,1,
 0,0,0,0,2,1,
 0,0,0,0,4,2,
 0,0,0,0,0,16,
 0,0,0,0,0,17,
 0,0,0,0,2,12,
 0,0,0,0,4,2,
 0,0,0,1,1,1,
 0,0,0,2,1,1,
 0,0,0,0,0,8,
 0,0,0,0,0,2,
 0,0,0,0,0,1
]);

